WARNING: for repeatability, setting FPU to use double precision
============================[ Problem Statistics ]=============================
|                                                                             |
|  Number of variables:          2010                                         |
|  Number of clauses:           11953                                         |
|  Parse time:                   0.00 s                                       |
|  Eliminated clauses:           0.03 Mb                                      |
|  Simplification time:          0.02 s                                       |
|                                                                             |
============================[ Search Statistics ]==============================
| Conflicts |          ORIGINAL         |          LEARNT          | Progress |
|           |    Vars  Clauses Literals |    Limit  Clauses Lit/Cl |          |
===============================================================================
|       100 |     595     5976    31922 |     2191      100     28 |  9.552 % |
|       250 |     595     5976    31922 |     2410      250     27 |  9.552 % |
|       475 |     591     5976    31922 |     2651      474     31 |  9.751 % |
|       812 |     591     5852    31479 |     2916      808     34 |  9.751 % |
|      1318 |     591     5852    31479 |     3208     1314     36 |  9.751 % |
|      2077 |     591     5852    31479 |     3528     2073     38 |  9.751 % |
|      3216 |     591     5852    31479 |     3881     3212     46 |  9.751 % |
|      4924 |     591     5852    31479 |     4270     2813     43 |  9.751 % |
|      7486 |     591     5852    31479 |     4697     3057     38 |  9.751 % |
|     11330 |     591     5852    31479 |     5166     4446     45 |  9.751 % |
|     17096 |     591     5852    31479 |     5683     4706     48 |  9.751 % |
|     25745 |     591     5852    31479 |     6251     4295     45 |  9.751 % |
|     38719 |     591     5852    31479 |     6876     4029     48 |  9.751 % |
|     58180 |     591     5852    31479 |     7564     5489     43 |  9.751 % |
|     87372 |     591     5852    31479 |     8321     7078     44 |  9.751 % |
|    131161 |     591     5852    31479 |     9153     7507     46 |  9.751 % |
|    196845 |     591     5852    31479 |    10068     6806     44 |  9.751 % |
|    295371 |     591     5852    31479 |    11075     6514     41 |  9.752 % |
|    443160 |     591     5852    31479 |    12182     6085     40 |  9.751 % |
|    664843 |     591     5852    31479 |    13401     8684     44 |  9.751 % |
|    997368 |     591     5852    31479 |    14741    11699     42 |  9.752 % |
|   1496156 |     591     5852    31479 |    16215    12709     43 |  9.752 % |
|   2244338 |     591     5852    31479 |    17836    15898     42 |  9.752 % |
|   3366612 |     591     5852    31479 |    19620    10738     39 |  9.752 % |
|   5050023 |     591     5852    31479 |    21582    16545     40 |  9.751 % |
|   7575139 |     591     5852    31479 |    23741    19757     43 |  9.752 % |
|  11362814 |     591     5852    31479 |    26115    13199     45 |  9.751 % |
|  17044326 |     590     5829    31433 |    28726    19591     38 |  9.802 % |
|  25566595 |     590     5829    31433 |    31599    19321     45 |  9.801 % |
|  38349998 |     590     5829    31433 |    34759    24310     28 |  9.802 % |
|  57525103 |     587     5731    31088 |    38235    29100     39 |  9.951 % |
|  86287761 |     577     5317    29282 |    42058    31599     35 | 10.449 % |
===============================================================================
restarts              : 114685
conflicts             : 88038946       (27740 /sec)
decisions             : 110090500      (0.00 % random) (34688 /sec)
propagations          : 6888595310     (2170501 /sec)
conflict literals     : 3951528465     (37.30 % deleted)
Memory used           : 83.00 MB
CPU time              : 3173.74 s

UNSATISFIABLE
MiniSat a returnat un cod de eroare 20 pentru fișierul 0ac6aaf6db6a0e4ec3a06e865d01086f-pcmax-scheduling-m13-2011-12813-UNSAT.sanitized.cnf.
